GeneratedTests/Random_12/Random_12_1.tsp
NAME: Random_12_1
TYPE: TSP
DIMENSION: 12
EDGE_WEIGHT_TYPE: EUC_2D
NODE_COORD_SECTION
1 4.2117205 0.18111134
2 14.257727 35.45094
3 7.6872606 14.839045
4 13.908357 0.9496758
5 18.202703 19.998024
6 18.224157 10.418884
7 27.227781 16.240854
8 29.963024 6.339575
9 34.99978 1.6964028
10 34.678665 13.365009
11 15.141258 27.7387
12 13.488509 3.1728966
EOF
