GeneratedTests/Random_12/Random_12_1.txt
NAME: Random_12_1
TYPE: TSP
DIMENSION: 12
EDGE_WEIGHT_TYPE: EUC_2D
NODE_COORD_SECTION
1 30.400314 0.8470695
2 34.786556 26.378166
3 10.646833 30.326546
4 4.834465 14.858161
5 16.782162 15.2255745
6 0.40153313 19.252827
7 16.764841 22.325378
8 27.23051 16.523388
9 4.8962736 33.490673
10 30.909895 29.078487
11 3.7954824 33.789265
12 29.24354 34.97569
EOF
